DATASET = "thpack5";
INSTANCE = "054";

WIDTH = 233;
HEIGHT = 220;
LENGTH = 587;

NO_OF_SHAPES = 12;
size = [|
  99,68,23 |
  68,52,40 |
  101,66,61 |
  57,56,22 |
  81,54,47 |
  86,34,25 |
  54,46,27 |
  95,65,34 |
  105,57,29 |
  120,63,28 |
  64,62,42 |
  78,65,21 |
|];

verticality = [|
  0,0,1 |
  1,1,1 |
  1,1,1 |
  0,0,1 |
  1,1,1 |
  0,1,1 |
  0,1,1 |
  0,1,1 |
  0,1,1 |
  0,0,1 |
  1,1,1 |
  0,0,1 |
|];

box_count = [
  20,
  18,
  16,
  13,
  15,
  19,
  16,
  14,
  13,
  12,
  14,
  13,
];
